RT is False
Default write of storage_offers_DA.csv just to have a file (but constraint should be inactive)
Reading model...
...model read.
creating competitive generators file...
...competitive generators recorded.
Loading data...
.. day-ahead data read.
Compiling instance...
...instance created.
Creating Offer Mitigation (model will solve as dispatch if TRUE)...
NOTE: storage offers will not be mitigated
...storage offer mitigation file created
Converting model to MPEC...
...converted
NOTE: initial MIP solve with only storage competitive to get feasible solution
Solving...

Welcome to IBM(R) ILOG(R) CPLEX(R) Interactive Optimizer 12.10.0.0
  with Simplex, Mixed Integer & Barrier Optimizers
5725-A06 5725-A29 5724-Y48 5724-Y49 5724-Y54 5724-Y55 5655-Y21
Copyright IBM Corp. 1988, 2019.  All Rights Reserved.

Type 'help' for a list of available commands.
Type 'help' followed by a command name for more
information on commands.

CPLEX> Logfile 'cplex.log' closed.
Logfile 'C:\Users\wenmi\Desktop\competitiveMPEC\logs\tmp4iiqop4m.cplex.log' open.
CPLEX> New value for parallel optimization mode: -1
CPLEX> New value for mixed integer optimality gap tolerance: 0.05
CPLEX> New value for deterministic time limit in ticks: 100000
CPLEX> Problem 'C:\Users\wenmi\Desktop\competitiveMPEC\logs\tmp5arid3fk.pyomo.lp' read.
Read time = 0.16 sec. (14.50 ticks)
CPLEX> Problem name         : C:\Users\wenmi\Desktop\competitiveMPEC\logs\tmp5arid3fk.pyomo.lp
Objective sense      : Maximize
Variables            :   53803  [Nneg: 1,  Box: 21998,  Free: 4464,
                                 Binary: 27340]
Objective nonzeros   :    9084
Linear constraints   :  123205  [Less: 41346,  Greater: 59096,  Equal: 22763]
  Nonzeros           :  289289
  RHS nonzeros       :   67473

Variables            : Min LB: -5000.000        Max UB: 1000000.       
Objective nonzeros   : Min   : 0.1000000        Max   : 2500.000       
Linear constraints   :
  Nonzeros           : Min   : 0.1000000        Max   : 1000000.       
  RHS nonzeros       : Min   : 0.1000000        Max   : 1000000.       
CPLEX> Version identifier: 12.10.0.0 | 2019-11-26 | 843d4de2ae
CPXPARAM_Parallel                                -1
CPXPARAM_DetTimeLimit                            100000
CPXPARAM_MIP_Tolerances_MIPGap                   0.050000000000000003
Tried aggregator 3 times.
MIP Presolve eliminated 88761 rows and 19070 columns.
MIP Presolve added 3377 rows and 0 columns.
MIP Presolve modified 24824 coefficients.
Aggregator did 12976 substitutions.
Reduced MIP has 24845 rows, 21188 columns, and 68406 nonzeros.
Reduced MIP has 8372 binaries, 0 generals, 0 SOSs, and 0 indicators.
Presolve time = 0.16 sec. (164.75 ticks)
Probing fixed 363 vars, tightened 3869 bounds.
Probing time = 0.05 sec. (17.71 ticks)
Tried aggregator 2 times.
Detecting symmetries...
MIP Presolve eliminated 822 rows and 727 columns.
MIP Presolve modified 3145 coefficients.
Aggregator did 34 substitutions.
Reduced MIP has 23989 rows, 20427 columns, and 65929 nonzeros.
Reduced MIP has 8009 binaries, 0 generals, 0 SOSs, and 0 indicators.
Presolve time = 0.06 sec. (91.81 ticks)
Probing fixed 0 vars, tightened 316 bounds.
Probing time = 0.06 sec. (21.52 ticks)
Clique table members: 44051.
MIP emphasis: balance optimality and feasibility.
MIP search method: dynamic search.
Parallel mode: opportunistic, using up to 16 threads.
Root relaxation solution time = 0.20 sec. (551.77 ticks)

        Nodes                                         Cuts/
   Node  Left     Objective  IInf  Best Integer    Best Bound    ItCnt     Gap

      0     0     2782.7267    66                   2782.7267     4840         
*     0+    0                          615.5268     2782.7267           352.09%
      0     0     2782.7239    66      615.5268      Cuts: 28     4854  250.91%
      0     0     2668.3342    66      615.5268      Cuts: 66     4871  250.91%
*     0+    0                          868.1733     2159.9424           148.79%
      0     0     2172.7982    66      868.1733      Cuts: 56     4898  148.79%
      0     0     1942.0228    66      868.1733      Cuts: 60     4930  123.69%
      0     0     1834.2961    66      868.1733      Cuts: 39     4953  111.28%
      0     0     1783.9885    66      868.1733      Cuts: 40     4989  105.49%
      0     0     1724.2780    66      868.1733      Cuts: 56     5008   31.73%
      0     0     1713.5694    66      868.1733       Cuts: 3     5014   31.73%
      0     0     1699.2342    66      868.1733    MIRcuts: 4     5020   31.73%
      0     2     1699.2342    18      868.1733     1143.6356     5020   31.73%
Elapsed time = 3.63 sec. (2656.83 ticks, tree = 0.02 MB, solutions = 3)
*     5+    3                          905.3599     1143.6356            26.32%

Clique cuts applied:  1
Implied bound cuts applied:  9
Flow cuts applied:  48
Mixed integer rounding cuts applied:  22
Gomory fractional cuts applied:  6

Root node processing (before b&c):
  Real time             =    3.20 sec. (2604.48 ticks)
Parallel b&c, 16 threads:
  Real time             =    0.47 sec. (202.18 ticks)
  Sync time (average)   =    0.26 sec.
  Wait time (average)   =    0.00 sec.
                          ------------
Total (root+branch&cut) =    3.67 sec. (2806.66 ticks)

Solution pool: 4 solutions saved.

MIP - Integer optimal, tolerance (0.05/1e-06):  Objective =  9.0535992310e+02
Current MIP best bound =  9.1504583109e+02 (gap = 9.68591, 1.07%)
Solution time =    3.67 sec.  Iterations = 5110  Nodes = 10 (2)
Deterministic time = 2806.81 ticks  (764.38 ticks/sec)

CPLEX> Incumbent solution written to file 'C:\Users\wenmi\Desktop\competitiveMPEC\logs\tmpbn4yirnd.cplex.sol'.
CPLEX> NOTE: no warmstart specified for MIP iteration, default behavior is true
NOTE: resolving with all competitive generators using storage-only solution to warmstart
Solving...

Welcome to IBM(R) ILOG(R) CPLEX(R) Interactive Optimizer 12.10.0.0
  with Simplex, Mixed Integer & Barrier Optimizers
5725-A06 5725-A29 5724-Y48 5724-Y49 5724-Y54 5724-Y55 5655-Y21
Copyright IBM Corp. 1988, 2019.  All Rights Reserved.

Type 'help' for a list of available commands.
Type 'help' followed by a command name for more
information on commands.

CPLEX> Logfile 'cplex.log' closed.
Logfile 'C:\Users\wenmi\Desktop\competitiveMPEC\logs\tmphz6uw7hl.cplex.log' open.
CPLEX> New value for parallel optimization mode: -1
CPLEX> New value for mixed integer optimality gap tolerance: 0.05
CPLEX> New value for deterministic time limit in ticks: 100000
CPLEX> Problem 'C:\Users\wenmi\Desktop\competitiveMPEC\logs\tmp3l7vngm6.pyomo.lp' read.
Read time = 0.16 sec. (14.52 ticks)
CPLEX> MIP start file 'C:\Users\wenmi\Desktop\competitiveMPEC\logs\tmp3l92cbq_.cplex.mst' read.
CPLEX> Problem name         : C:\Users\wenmi\Desktop\competitiveMPEC\logs\tmp3l7vngm6.pyomo.lp
Objective sense      : Maximize
Variables            :   54523  [Nneg: 1,  Box: 22718,  Free: 4464,
                                 Binary: 27340]
Objective nonzeros   :    9780
Linear constraints   :  123205  [Less: 41346,  Greater: 59096,  Equal: 22763]
  Nonzeros           :  289289
  RHS nonzeros       :   67473

Variables            : Min LB: -5000.000        Max UB: 1000000.       
Objective nonzeros   : Min   : 0.1000000        Max   : 2500.000       
Linear constraints   :
  Nonzeros           : Min   : 0.1000000        Max   : 1000000.       
  RHS nonzeros       : Min   : 0.1000000        Max   : 1000000.       
CPLEX> Version identifier: 12.10.0.0 | 2019-11-26 | 843d4de2ae
CPXPARAM_Parallel                                -1
CPXPARAM_DetTimeLimit                            100000
CPXPARAM_MIP_Tolerances_MIPGap                   0.050000000000000003
1 of 1 MIP starts provided solutions.
MIP start 'm1' defined initial solution with objective 905.3599.
Tried aggregator 3 times.
MIP Presolve eliminated 88761 rows and 19790 columns.
MIP Presolve added 3377 rows and 0 columns.
MIP Presolve modified 24824 coefficients.
Aggregator did 12976 substitutions.
Reduced MIP has 24845 rows, 21188 columns, and 68406 nonzeros.
Reduced MIP has 8372 binaries, 0 generals, 0 SOSs, and 0 indicators.
Presolve time = 0.16 sec. (165.10 ticks)
Probing fixed 363 vars, tightened 3869 bounds.
Probing time = 0.05 sec. (17.71 ticks)
Tried aggregator 2 times.
Detecting symmetries...
MIP Presolve eliminated 822 rows and 727 columns.
MIP Presolve modified 3145 coefficients.
Aggregator did 34 substitutions.
Reduced MIP has 23989 rows, 20427 columns, and 65929 nonzeros.
Reduced MIP has 8009 binaries, 0 generals, 0 SOSs, and 0 indicators.
Presolve time = 0.06 sec. (91.81 ticks)
Probing fixed 0 vars, tightened 316 bounds.
Probing time = 0.06 sec. (21.52 ticks)
Clique table members: 44051.
MIP emphasis: balance optimality and feasibility.
MIP search method: dynamic search.
Parallel mode: opportunistic, using up to 16 threads.
Root relaxation solution time = 0.24 sec. (567.20 ticks)

        Nodes                                         Cuts/
   Node  Left     Objective  IInf  Best Integer    Best Bound    ItCnt     Gap

*     0+    0                          905.3599   7.29054e+07              --- 
      0     0   116976.6049   183      905.3599   116976.6049     5692     --- 
      0     0   114184.8458   183      905.3599     Cuts: 575     5935     --- 
      0     0   113959.0711   183      905.3599      Cuts: 49     6001     --- 
      0     0   113958.9858   183      905.3599      Cuts: 14     6021     --- 
      0     0   113456.6303   183      905.3599      Cuts: 56     6061     --- 
      0     0   113434.0932   183      905.3599     Cuts: 147     6117     --- 
      0     0   113427.0815   183      905.3599      Cuts: 51     6135     --- 
      0     0   113356.3077   183      905.3599      Cuts: 18     6147     --- 
      0     0   113356.3077   183      905.3599      Cuts: 12     6159     --- 
      0    14        cutoff            905.3599   111208.3909     6515     --- 
Elapsed time = 4.01 sec. (3114.30 ticks, tree = 0.02 MB, solutions = 1)
     33    44   100386.4180   100      905.3599   111208.3909     6816     --- 
    247    37    98300.1987   105      905.3599   109874.8637     6824     --- 
    543   282        cutoff            905.3599   109874.8637     9155     --- 
    910   600    89639.9935   119      905.3599   109874.8637    11902     --- 
   1326   719    92587.1423    69      905.3599   109874.8637    13232     --- 
   1724   943    45108.0402    34      905.3599   109874.8637    15853     --- 
   2084  1163    22454.9420    11      905.3599   109874.8637    18404     --- 
   2419  1294    34159.8962    59      905.3599   109874.8637    21066     --- 
   2725  1742    34686.8872    47      905.3599   109874.8637    35194     --- 
*  3780  2023      integral     0    14850.1492   105244.3015    42691  608.71%
   3935  2084     1304.7077    29    14850.1492   104466.6859    44417  603.47%
Elapsed time = 16.38 sec. (6218.18 ticks, tree = 15.11 MB, solutions = 2)
*  4134+ 2345                        14927.6034   104466.6859           599.82%

Performing restart 1

Repeating presolve.
Tried aggregator 3 times.
MIP Presolve eliminated 809 rows and 734 columns.
MIP Presolve modified 42756 coefficients.
Aggregator did 233 substitutions.
Reduced MIP has 22947 rows, 19460 columns, and 62493 nonzeros.
Reduced MIP has 7690 binaries, 0 generals, 0 SOSs, and 0 indicators.
Presolve time = 0.09 sec. (98.59 ticks)
Tried aggregator 3 times.
MIP Presolve eliminated 445 rows and 366 columns.
MIP Presolve modified 11752 coefficients.
Aggregator did 13 substitutions.
Reduced MIP has 22489 rows, 19081 columns, and 61269 nonzeros.
Reduced MIP has 7507 binaries, 0 generals, 0 SOSs, and 0 indicators.
Presolve time = 0.05 sec. (53.44 ticks)
Tried aggregator 2 times.
MIP Presolve modified 10515 coefficients.
Aggregator did 1 substitutions.
Reduced MIP has 22488 rows, 19080 columns, and 61266 nonzeros.
Reduced MIP has 7507 binaries, 0 generals, 0 SOSs, and 0 indicators.
Presolve time = 0.06 sec. (51.44 ticks)
Represolve time = 0.59 sec. (443.98 ticks)
   4635     0    70713.6517   124    14927.6034     Cuts: 139    80936  373.71%
   4635     0    70706.6496   124    14927.6034     Cuts: 144    80994  373.66%
   4635     0    70650.7946   124    14927.6034     Cuts: 157    81067  373.29%
   4635     0    70319.1799   124    14927.6034      Cuts: 67    81185  371.07%
   4635     0    69734.1033   124    14927.6034      Cuts: 58    81264  367.15%
   4635     0    65070.0800   124    14927.6034      Cuts: 65    81322  335.36%
   4635     0    64971.7893   124    14927.6034      Cuts: 33    81360  335.25%
   4635     0    64369.4653   124    14927.6034      Cuts: 61    81412  236.78%
   4635     0    64275.0173   124    14927.6034     Cuts: 107    81468  236.78%
   4635     0    64262.1982   124    14927.6034      Cuts: 44    81495  175.25%
   4635     0    63668.1694   124    14927.6034      Cuts: 64    81553  175.25%
   4635     4        cutoff          14927.6034    34923.4471    81830  133.95%
   4764     8    22839.6855    49    14927.6034    16933.1154    82422   13.43%

Cover cuts applied:  2
Implied bound cuts applied:  11
Flow cuts applied:  100
Mixed integer rounding cuts applied:  20
Lift and project cuts applied:  2
Gomory fractional cuts applied:  8

Root node processing (before b&c):
  Real time             =    3.20 sec. (3091.72 ticks)
Parallel b&c, 16 threads:
  Real time             =   22.16 sec. (10713.92 ticks)
  Sync time (average)   =    2.12 sec.
  Wait time (average)   =    0.02 sec.
                          ------------
Total (root+branch&cut) =   25.36 sec. (13805.63 ticks)

Solution pool: 3 solutions saved.

MIP - Integer optimal, tolerance (0.05/1e-06):  Objective =  1.4927603425e+04
Current MIP best bound =  1.5655760142e+04 (gap = 728.157, 4.88%)
Solution time =   25.36 sec.  Iterations = 84263  Nodes = 4816 (14)
Deterministic time = 13805.79 ticks  (544.41 ticks/sec)

CPLEX> Incumbent solution written to file 'C:\Users\wenmi\Desktop\competitiveMPEC\logs\tmp4mjexqto.cplex.sol'.
CPLEX> Exporting results... 
